(set-info :smt-lib-version 2.6)
(set-logic UF)
(set-info :source |Benchmarks from the paper: "Extending Sledgehammer with SMT Solvers" by Jasmin Blanchette, Sascha Bohme, and Lawrence C. Paulson, CADE 2011.  Translated to SMT2 by Andrew Reynolds and Morgan Deters.|)
(set-info :category "industrial")
(set-info :status unknown)
(declare-sort S1 0)
(declare-sort S2 0)
(declare-sort S3 0)
(declare-sort S4 0)
(declare-sort S5 0)
(declare-sort S6 0)
(declare-sort S7 0)
(declare-sort S8 0)
(declare-sort S9 0)
(declare-sort S10 0)
(declare-sort S11 0)
(declare-fun f1 () S1)
(declare-fun f2 () S1)
(declare-fun f3 (S3 S2) S2)
(declare-fun f4 () S3)
(declare-fun f5 () S3)
(declare-fun f6 (S4 S2) S3)
(declare-fun f7 () S4)
(declare-fun f8 (S5 S6) S2)
(declare-fun f9 () S5)
(declare-fun f10 (S7 S6) S6)
(declare-fun f11 () S7)
(declare-fun f12 () S7)
(declare-fun f13 () S6)
(declare-fun f14 (S8 S2) S9)
(declare-fun f15 (S2) S8)
(declare-fun f16 () S2)
(declare-fun f17 () S2)
(declare-fun f18 (S10 S9) S9)
(declare-fun f19 (S9) S10)
(declare-fun f20 (S3) S10)
(declare-fun f21 (S11 S6) S7)
(declare-fun f22 () S11)
(declare-fun f23 () S7)
(declare-fun f24 () S6)
(declare-fun f25 (S2 S9) S1)
(declare-fun f26 (S9 S2) S1)
(declare-fun f27 (S1 S1) S1)
(assert (not (= f1 f2)))
(assert (forall ((?v0 S2)) (= (f3 f4 ?v0) (f3 f5 (f3 (f6 f7 (f8 f9 (f10 f11 (f10 f12 f13)))) ?v0)))))
(assert (let ((?v_0 (f6 f7 (f8 f9 (f10 f11 (f10 f12 f13))))) (?v_1 (f15 f16))) (let ((?v_2 (f14 ?v_1 f17))) (not (= (f14 ?v_1 (f3 ?v_0 f17)) (f18 (f19 (f18 (f20 ?v_0) ?v_2)) (f18 (f20 f4) ?v_2)))))))
(assert (= (f3 f5 (f3 f5 f16)) (f8 f9 (f10 f11 (f10 f12 f13)))))
(assert (= (f8 f9 (f10 f11 (f10 f12 f13))) (f3 f5 (f3 f5 f16))))
(assert (= (f8 f9 (f10 f12 f13)) (f3 f5 f16)))
(assert (= (f8 f9 (f10 f12 (f10 f12 f13))) (f3 f5 (f3 f5 (f3 f5 f16)))))
(assert (forall ((?v0 S6)) (= (f10 (f21 f22 ?v0) (f10 f23 (f10 f12 f13))) ?v0)))
(assert (forall ((?v0 S6)) (= (f10 (f21 f22 (f10 f23 (f10 f12 f13))) ?v0) ?v0)))
(assert (forall ((?v0 S2) (?v1 S2)) (= (f18 (f20 f5) (f14 (f15 ?v0) ?v1)) (f14 (f15 (f3 f5 ?v0)) (f3 f5 ?v1)))))
(assert (forall ((?v0 S2) (?v1 S2)) (let ((?v_0 (f3 f5 f16))) (= (= (f3 (f6 f7 ?v0) ?v1) ?v_0) (and (= ?v0 ?v_0) (= ?v1 ?v_0))))))
(assert (= f16 (f8 f9 f13)))
(assert (= (f8 f9 f13) f16))
(assert (= f24 (f10 f23 f13)))
(assert (= (f10 f23 f13) f24))
(assert (= f24 (f10 f23 f13)))
(assert (forall ((?v0 S6)) (= (f10 (f21 f22 f13) ?v0) f13)))
(assert (forall ((?v0 S6) (?v1 S6)) (= (f10 (f21 f22 (f10 f11 ?v0)) ?v1) (f10 f11 (f10 (f21 f22 ?v0) ?v1)))))
(assert (= f13 f24))
(assert (forall ((?v0 S6) (?v1 S6)) (= (= (f10 f23 ?v0) (f10 f23 ?v1)) (= ?v0 ?v1))))
(assert (forall ((?v0 S6) (?v1 S2)) (let ((?v_0 (f8 f9 ?v0))) (= (= ?v_0 ?v1) (= ?v1 ?v_0)))))
(assert (forall ((?v0 S6) (?v1 S6)) (let ((?v_0 (f10 f23 ?v0))) (= (= ?v_0 ?v1) (= ?v1 ?v_0)))))
(assert (forall ((?v0 S6) (?v1 S6)) (= (= (f10 f12 ?v0) (f10 f12 ?v1)) (= ?v0 ?v1))))
(assert (= (= f13 f13) true))
(assert (forall ((?v0 S6) (?v1 S6)) (= (= (f10 f11 ?v0) (f10 f11 ?v1)) (= ?v0 ?v1))))
(assert (forall ((?v0 S2) (?v1 S2)) (=> (= (f3 f5 ?v0) (f3 f5 ?v1)) (= ?v0 ?v1))))
(assert (forall ((?v0 S2) (?v1 S2)) (= (= (f3 f5 ?v0) (f3 f5 ?v1)) (= ?v0 ?v1))))
(assert (forall ((?v0 S2)) (not (= (f3 f5 ?v0) ?v0))))
(assert (forall ((?v0 S2)) (not (= ?v0 (f3 f5 ?v0)))))
(assert (forall ((?v0 S2) (?v1 S2) (?v2 S2)) (let ((?v_0 (f6 f7 ?v0))) (= (f3 (f6 f7 (f3 ?v_0 ?v1)) ?v2) (f3 ?v_0 (f3 (f6 f7 ?v1) ?v2))))))
(assert (forall ((?v0 S2) (?v1 S2)) (= (f3 (f6 f7 ?v0) ?v1) (f3 (f6 f7 ?v1) ?v0))))
(assert (forall ((?v0 S6) (?v1 S6) (?v2 S6)) (= (f10 (f21 f22 (f10 f23 ?v0)) (f10 (f21 f22 (f10 f23 ?v1)) ?v2)) (f10 (f21 f22 (f10 f23 (f10 (f21 f22 ?v0) ?v1))) ?v2))))
(assert (forall ((?v0 S6) (?v1 S6)) (= (f10 (f21 f22 (f10 f23 ?v0)) (f10 f23 ?v1)) (f10 f23 (f10 (f21 f22 ?v0) ?v1)))))
(assert (forall ((?v0 S6) (?v1 S6)) (= (f10 f23 (f10 (f21 f22 ?v0) ?v1)) (f10 (f21 f22 (f10 f23 ?v0)) (f10 f23 ?v1)))))
(assert (forall ((?v0 S2)) (=> (= (f3 f5 ?v0) f16) false)))
(assert (forall ((?v0 S2)) (=> (= f16 (f3 f5 ?v0)) false)))
(assert (forall ((?v0 S2)) (not (= (f3 f5 ?v0) f16))))
(assert (forall ((?v0 S2)) (not (= (f3 f5 ?v0) f16))))
(assert (forall ((?v0 S2)) (not (= f16 (f3 f5 ?v0)))))
(assert (forall ((?v0 S2)) (not (= f16 (f3 f5 ?v0)))))
(assert (forall ((?v0 S6)) (= (= (f10 f12 ?v0) f13) false)))
(assert (forall ((?v0 S6)) (= (= f13 (f10 f12 ?v0)) false)))
(assert (forall ((?v0 S6) (?v1 S6)) (= (= (f10 f12 ?v0) (f10 f11 ?v1)) false)))
(assert (forall ((?v0 S6) (?v1 S6)) (= (= (f10 f11 ?v0) (f10 f12 ?v1)) false)))
(assert (forall ((?v0 S6)) (= (= (f10 f11 ?v0) f13) (= ?v0 f13))))
(assert (forall ((?v0 S6)) (= (= f13 (f10 f11 ?v0)) (= f13 ?v0))))
(assert (= (f10 f11 f13) f13))
(assert (forall ((?v0 S2) (?v1 S2) (?v2 S2)) (= (= (f3 (f6 f7 ?v0) ?v1) (f3 (f6 f7 ?v2) ?v1)) (or (= ?v0 ?v2) (= ?v1 f16)))))
(assert (forall ((?v0 S2) (?v1 S2) (?v2 S2)) (let ((?v_0 (f6 f7 ?v0))) (= (= (f3 ?v_0 ?v1) (f3 ?v_0 ?v2)) (or (= ?v1 ?v2) (= ?v0 f16))))))
(assert (forall ((?v0 S2) (?v1 S2)) (= (= (f3 (f6 f7 ?v0) ?v1) f16) (or (= ?v0 f16) (= ?v1 f16)))))
(assert (forall ((?v0 S2)) (= (f3 (f6 f7 ?v0) f16) f16)))
(assert (forall ((?v0 S2)) (= (f3 (f6 f7 f16) ?v0) f16)))
(assert (forall ((?v0 S2) (?v1 S2) (?v2 S2)) (let ((?v_0 (f6 f7 (f3 f5 ?v0)))) (= (= (f3 ?v_0 ?v1) (f3 ?v_0 ?v2)) (= ?v1 ?v2)))))
(assert (= (f8 f9 f13) f16))
(assert (= (f10 f23 f13) f24))
(assert (forall ((?v0 S2) (?v1 S9) (?v2 S9)) (=> (=> (not (= (f25 ?v0 ?v1) f1)) (= (f25 ?v0 ?v2) f1)) (= (f25 ?v0 (f18 (f19 ?v2) ?v1)) f1))))
(assert (forall ((?v0 S9) (?v1 S2) (?v2 S9)) (=> (=> (not (= (f26 ?v0 ?v1) f1)) (= (f26 ?v2 ?v1) f1)) (= (f26 (f18 (f19 ?v2) ?v0) ?v1) f1))))
(assert (forall ((?v0 S9) (?v1 S9) (?v2 S2)) (=> (= (f26 (f18 (f19 ?v0) ?v1) ?v2) f1) (=> (=> (= (f26 ?v0 ?v2) f1) false) (=> (=> (= (f26 ?v1 ?v2) f1) false) false)))))
(assert (forall ((?v0 S2) (?v1 S9) (?v2 S9)) (=> (= (f25 ?v0 (f18 (f19 ?v1) ?v2)) f1) (=> (=> (= (f25 ?v0 ?v1) f1) false) (=> (=> (= (f25 ?v0 ?v2) f1) false) false)))))
(assert (forall ((?v0 S2) (?v1 S3) (?v2 S2) (?v3 S9)) (=> (= ?v0 (f3 ?v1 ?v2)) (=> (= (f25 ?v2 ?v3) f1) (= (f25 ?v0 (f18 (f20 ?v1) ?v3)) f1)))))
(assert (forall ((?v0 S2)) (=> (=> (= ?v0 f16) false) (=> (forall ((?v1 S2)) (=> (= ?v0 (f3 f5 ?v1)) false)) false))))
(assert (forall ((?v0 S9) (?v1 S2)) (=> (= (f26 ?v0 ?v1) f1) (=> (forall ((?v2 S2)) (=> (= (f26 ?v0 (f3 f5 ?v2)) f1) (= (f26 ?v0 ?v2) f1))) (= (f26 ?v0 f16) f1)))))
(assert (forall ((?v0 S9) (?v1 S2)) (=> (= (f26 ?v0 f16) f1) (=> (forall ((?v2 S2)) (=> (= (f26 ?v0 ?v2) f1) (= (f26 ?v0 (f3 f5 ?v2)) f1))) (= (f26 ?v0 ?v1) f1)))))
(assert (forall ((?v0 S2)) (=> (not (= ?v0 f16)) (exists ((?v1 S2)) (= ?v0 (f3 f5 ?v1))))))
(assert (forall ((?v0 S3) (?v1 S9) (?v2 S9)) (let ((?v_0 (f20 ?v0))) (= (f18 ?v_0 (f18 (f19 ?v1) ?v2)) (f18 (f19 (f18 ?v_0 ?v1)) (f18 ?v_0 ?v2))))))
(assert (forall ((?v0 S9) (?v1 S9) (?v2 S2)) (= (= (f26 (f18 (f19 ?v0) ?v1) ?v2) f1) (= (f27 (f26 ?v0 ?v2) (f26 ?v1 ?v2)) f1))))
(assert (forall ((?v0 S6)) (= (f10 f23 ?v0) ?v0)))
(assert (forall ((?v0 S6) (?v1 S6)) (= (f10 (f21 f22 ?v0) ?v1) (f10 (f21 f22 ?v1) ?v0))))
(check-sat)
(exit)
